\ Model Hospital NetwORk
\ LP format - for model browsing. Use MPS format to capture full model detail.
Minimize
  100 y_h1_1 + 200 y_h1_2 + 600 y_h1_3 + 90 y_h2_1 + 100 y_h2_2 + 250 y_h2_3
   + 50 y_h3_1 + 250 y_h3_2 + 300 y_h3_3 + 180 y_h4_1 + 200 y_h4_2
   + 480 y_h4_3 + 200 y_h5_1 + 300 y_h5_2 + 400 y_h5_3 + 50 y_h6_1
   + 250 y_h6_2 + 550 y_h6_3 + 100 y_h7_1 + 150 y_h7_2 + 200 y_h7_3
   - 150 Constant
Subject To
 R0: x_h1_c1 + x_h2_c1 + x_h4_c1 + x_h5_c1 = 1
 R1: x_h1_c2 + x_h2_c2 + x_h4_c2 + x_h5_c2 = 1
 R2: x_h1_c3 + x_h2_c3 + x_h3_c3 + x_h5_c3 = 1
 R3: x_h6_c4 + x_h7_c4 = 1
 R4: x_h1_c5 + x_h2_c5 + x_h3_c5 + x_h5_c5 = 1
 R5: x_h4_c6 + x_h5_c6 + x_h6_c6 + x_h7_c6 = 1
 R6: x_h2_c7 + x_h4_c7 + x_h5_c7 + x_h6_c7 + x_h7_c7 = 1
 R7: x_h6_c8 + x_h7_c8 = 1
 R8: x_h1_c9 + x_h2_c9 + x_h3_c9 + x_h4_c9 + x_h5_c9 + x_h6_c9 = 1
 R9: x_h1_c10 + x_h2_c10 + x_h5_c10 = 1
 R10: x_h1_c11 + x_h2_c11 + x_h3_c11 + x_h5_c11 = 1
 R11: 20.6155281280883 x_h1_c1 - 20 y_h1_1 - 20 y_h1_2 - 30 y_h1_3 <= 0
 R12: 25.49509756796392 x_h1_c2 - 20 y_h1_1 - 20 y_h1_2 - 30 y_h1_3 <= 0
 R13: 15 x_h1_c3 - 20 y_h1_1 - 20 y_h1_2 - 30 y_h1_3 <= 0
 R14: 15.8113883008419 x_h1_c5 - 20 y_h1_1 - 20 y_h1_2 - 30 y_h1_3 <= 0
 R15: 22.3606797749979 x_h1_c9 - 20 y_h1_1 - 20 y_h1_2 - 30 y_h1_3 <= 0
 R16: 14.14213562373095 x_h1_c10 - 20 y_h1_1 - 20 y_h1_2 - 30 y_h1_3 <= 0
 R17: 11.18033988749895 x_h1_c11 - 20 y_h1_1 - 20 y_h1_2 - 30 y_h1_3 <= 0
 R18: x_h1_c1 + x_h1_c2 + x_h1_c3 + x_h1_c5 + x_h1_c9 + x_h1_c10 + x_h1_c11
   - 3 y_h1_1 - 3 y_h1_2 - 8 y_h1_3 <= 0
 R19: x_h1_c1 - y_h1_2 - y_h1_3 <= 0
 R20: x_h1_c3 - y_h1_2 - y_h1_3 <= 0
 R21: y_h1_1 + y_h1_2 + y_h1_3 <= 1
 R22: 11.18033988749895 x_h2_c1 - 20 y_h2_1 - 20 y_h2_2 - 30 y_h2_3 <= 0
 R23: 15.8113883008419 x_h2_c2 - 20 y_h2_1 - 20 y_h2_2 - 30 y_h2_3 <= 0
 R24: 18.02775637731995 x_h2_c3 - 20 y_h2_1 - 20 y_h2_2 - 30 y_h2_3 <= 0
 R25: 15.8113883008419 x_h2_c5 - 20 y_h2_1 - 20 y_h2_2 - 30 y_h2_3 <= 0
 R26: 28.2842712474619 x_h2_c7 - 20 y_h2_1 - 20 y_h2_2 - 30 y_h2_3 <= 0
 R27: 14.14213562373095 x_h2_c9 - 20 y_h2_1 - 20 y_h2_2 - 30 y_h2_3 <= 0
 R28: 10 x_h2_c10 - 20 y_h2_1 - 20 y_h2_2 - 30 y_h2_3 <= 0
 R29: 5 x_h2_c11 - 20 y_h2_1 - 20 y_h2_2 - 30 y_h2_3 <= 0
 R30: x_h2_c1 + x_h2_c2 + x_h2_c3 + x_h2_c5 + x_h2_c7 + x_h2_c9 + x_h2_c10
   + x_h2_c11 - 3 y_h2_1 - 3 y_h2_2 - 5 y_h2_3 <= 0
 R31: x_h2_c1 - y_h2_2 - y_h2_3 <= 0
 R32: x_h2_c3 - y_h2_2 - y_h2_3 <= 0
 R33: y_h2_1 + y_h2_2 + y_h2_3 <= 1
 R34: 15 x_h3_c3 - 20 y_h3_1 - 20 y_h3_2 - 30 y_h3_3 <= 0
 R35: 15.8113883008419 x_h3_c5 - 20 y_h3_1 - 20 y_h3_2 - 30 y_h3_3 <= 0
 R36: 28.2842712474619 x_h3_c9 - 20 y_h3_1 - 20 y_h3_2 - 30 y_h3_3 <= 0
 R37: 26.92582403567252 x_h3_c11 - 20 y_h3_1 - 20 y_h3_2 - 30 y_h3_3 <= 0
 R38: x_h3_c3 + x_h3_c5 + x_h3_c9 + x_h3_c11 - 3 y_h3_1 - 3 y_h3_2
   - 5 y_h3_3 <= 0
 R39: x_h3_c3 - y_h3_2 - y_h3_3 <= 0
 R40: y_h3_1 + y_h3_2 + y_h3_3 <= 1
 R41: 20.6155281280883 x_h4_c1 - 20 y_h4_1 - 20 y_h4_2 - 30 y_h4_3 <= 0
 R42: 15.8113883008419 x_h4_c2 - 20 y_h4_1 - 20 y_h4_2 - 30 y_h4_3 <= 0
 R43: 10 x_h4_c6 - 20 y_h4_1 - 20 y_h4_2 - 30 y_h4_3 <= 0
 R44: 22.3606797749979 x_h4_c7 - 20 y_h4_1 - 20 y_h4_2 - 30 y_h4_3 <= 0
 R45: 22.3606797749979 x_h4_c9 - 20 y_h4_1 - 20 y_h4_2 - 30 y_h4_3 <= 0
 R46: x_h4_c1 + x_h4_c2 + x_h4_c6 + x_h4_c7 + x_h4_c9 - 3 y_h4_1 - 4 y_h4_2
   - 5 y_h4_3 <= 0
 R47: x_h4_c1 - y_h4_2 - y_h4_3 <= 0
 R48: x_h4_c6 - y_h4_2 - y_h4_3 <= 0
 R49: y_h4_1 + y_h4_2 + y_h4_3 <= 1
 R50: 15 x_h5_c1 - 20 y_h5_1 - 20 y_h5_2 - 30 y_h5_3 <= 0
 R51: 15.8113883008419 x_h5_c2 - 20 y_h5_1 - 20 y_h5_2 - 30 y_h5_3 <= 0
 R52: 20.6155281280883 x_h5_c3 - 20 y_h5_1 - 20 y_h5_2 - 30 y_h5_3 <= 0
 R53: 15.8113883008419 x_h5_c5 - 20 y_h5_1 - 20 y_h5_2 - 30 y_h5_3 <= 0
 R54: 20 x_h5_c6 - 20 y_h5_1 - 20 y_h5_2 - 30 y_h5_3 <= 0
 R55: 14.14213562373095 x_h5_c7 - 20 y_h5_1 - 20 y_h5_2 - 30 y_h5_3 <= 0
 R56: - 20 y_h5_1 - 20 y_h5_2 - 30 y_h5_3 <= 0
 R57: 22.3606797749979 x_h5_c10 - 20 y_h5_1 - 20 y_h5_2 - 30 y_h5_3 <= 0
 R58: 11.18033988749895 x_h5_c11 - 20 y_h5_1 - 20 y_h5_2 - 30 y_h5_3 <= 0
 R59: x_h5_c1 + x_h5_c2 + x_h5_c3 + x_h5_c5 + x_h5_c6 + x_h5_c7 + x_h5_c9
   + x_h5_c10 + x_h5_c11 - 3 y_h5_1 - 4 y_h5_2 - 5 y_h5_3 <= 0
 R60: x_h5_c1 - y_h5_2 - y_h5_3 <= 0
 R61: x_h5_c3 - y_h5_2 - y_h5_3 <= 0
 R62: x_h5_c6 - y_h5_2 - y_h5_3 <= 0
 R63: y_h5_1 + y_h5_2 + y_h5_3 <= 1
 R64: 10 x_h6_c4 - 20 y_h6_1 - 20 y_h6_2 - 30 y_h6_3 <= 0
 R65: 20 x_h6_c6 - 20 y_h6_1 - 20 y_h6_2 - 30 y_h6_3 <= 0
 R66: 14.14213562373095 x_h6_c7 - 20 y_h6_1 - 20 y_h6_2 - 30 y_h6_3 <= 0
 R67: 25 x_h6_c8 - 20 y_h6_1 - 20 y_h6_2 - 30 y_h6_3 <= 0
 R68: 28.2842712474619 x_h6_c9 - 20 y_h6_1 - 20 y_h6_2 - 30 y_h6_3 <= 0
 R69: x_h6_c4 + x_h6_c6 + x_h6_c7 + x_h6_c8 + x_h6_c9 - y_h6_1 - 2 y_h6_2
   - 4 y_h6_3 <= 0
 R70: x_h6_c6 - y_h6_2 - y_h6_3 <= 0
 R71: x_h6_c8 - y_h6_2 - y_h6_3 <= 0
 R72: y_h6_1 + y_h6_2 + y_h6_3 <= 1
 R73: 11.18033988749895 x_h7_c4 - 20 y_h7_1 - 20 y_h7_2 - 30 y_h7_3 <= 0
 R74: 26.92582403567252 x_h7_c6 - 20 y_h7_1 - 20 y_h7_2 - 30 y_h7_3 <= 0
 R75: 25 x_h7_c7 - 20 y_h7_1 - 20 y_h7_2 - 30 y_h7_3 <= 0
 R76: 15.8113883008419 x_h7_c8 - 20 y_h7_1 - 20 y_h7_2 - 30 y_h7_3 <= 0
 R77: x_h7_c4 + x_h7_c6 + x_h7_c7 + x_h7_c8 - y_h7_1 - 2 y_h7_2 - 2 y_h7_3
   <= 0
 R78: x_h7_c6 - y_h7_2 - y_h7_3 <= 0
 R79: x_h7_c8 - y_h7_2 - y_h7_3 <= 0
 R80: y_h7_1 + y_h7_2 + y_h7_3 <= 1
Bounds
 Constant = 1
Binaries
 x_h1_c1 x_h1_c2 x_h1_c3 x_h1_c5 x_h1_c9 x_h1_c10 x_h1_c11 x_h2_c1 x_h2_c2
 x_h2_c3 x_h2_c5 x_h2_c7 x_h2_c9 x_h2_c10 x_h2_c11 x_h3_c3 x_h3_c5 x_h3_c9
 x_h3_c11 x_h4_c1 x_h4_c2 x_h4_c6 x_h4_c7 x_h4_c9 x_h5_c1 x_h5_c2 x_h5_c3
 x_h5_c5 x_h5_c6 x_h5_c7 x_h5_c9 x_h5_c10 x_h5_c11 x_h6_c4 x_h6_c6 x_h6_c7
 x_h6_c8 x_h6_c9 x_h7_c4 x_h7_c6 x_h7_c7 x_h7_c8 y_h1_1 y_h1_2 y_h1_3
 y_h2_1 y_h2_2 y_h2_3 y_h3_1 y_h3_2 y_h3_3 y_h4_1 y_h4_2 y_h4_3 y_h5_1
 y_h5_2 y_h5_3 y_h6_1 y_h6_2 y_h6_3 y_h7_1 y_h7_2 y_h7_3
End
